/*********************************************
 * OPL 12.6.3.0 Data
 * Author: adam
 * Creation Date: Dec 3, 2016 at 4:48:17 PM
 *********************************************/

n = 6;

Links = {
 	<"a1", <2>, <1>, 3>,
 	<"c1", <2>, <3>, 0>,
 	<"f1", <1>, <3>, 2>,
 	<"b1", <2>, <6>, 2>,
 	<"b2", <3>, <6>, 2>,
 	<"a2", <4>, <6>, 3>,
 	<"e1", <3>, <4>, 5>,
 	<"c2", <6>, <5>, 0>,
 	<"d1", <4>, <5>, 9>
 };
 
 Source = {};
 
 Other = {};
 
 
 Nodes = {
 	<1>,
 	<2>,
 	<3>,
 	<4>,
 	<5>,
	<6>
 };

